1 3 100 186603.88
1 3 200 185135.32
1 3 300 190506.36
2 3 100 252120.95
2 3 200 253601.32
2 3 300 256058.20
3 3 100 223702.78
3 3 200 227981.66
3 3 300 231447.28
4 3 100 189643.85
4 3 200 201101.31
4 3 300 199993.65
5 3 100 178701.55
5 3 200 172969.91
5 3 300 173798.53
